data/solutions/recovery/degenerate/moderate/binding/degenerate_moderate_instance36/9.sol
Elapsed time: 0.04
Upper bound: 1456277187.0
Planning weighted value: 37046802894.0
C[0]=1456277187.0
C[1]=1431171598.0
C[2]=1380031223.0
C[3]=1372523006.0
C[4]=0.0
y[0]=3
y[1]=3
y[2]=0
y[3]=1
y[4]=1
y[5]=2
y[6]=3
y[7]=1
y[8]=2
y[9]=3
y[10]=3
y[11]=1
y[12]=1
y[13]=1
y[14]=3
y[15]=0
y[16]=0
y[17]=3
y[18]=2
y[19]=3
y[20]=0
y[21]=2
y[22]=0
y[23]=3
y[24]=1
y[25]=2
y[26]=3
y[27]=3
y[28]=1
y[29]=3
y[30]=0
y[31]=0
y[32]=3
y[33]=2
y[34]=0
y[35]=1
y[36]=0
y[37]=2
y[38]=3
y[39]=1
y[40]=1
y[41]=3
y[42]=2
y[43]=3
y[44]=1
y[45]=0
